29453
0 0 1 0 1 0 1 0 0 0 0 0 1 1 1 1 1 1 1 1 0 0 0 1 1 1 1 0 1 0 
18 19 2 18 15 12 15 28 18 28 4 28 13 23 28 18 13 23 16 17 18 16 2 24 17 18 24 19 4 2 19 19 4 16 28 6 14 26 24 15 18 26 6 4 13 19 13 16 19 14 24 16 16 16 13 6 12 26 18 25 4 2 18 14 13 12 2 14 19 12 18 12 6 26 23 23 14 17 26 16 23 17 26 25 4 23 6 2 24 25 28 6 25 25 2 13 18 6 17 28 19 15 12 25 4 24 4 24 16 13 19 4 18 12 12 26 28 25 17 14 26 25 17 19 26 16 2 12 26 17 28 24 25 14 23 26 13 13 28 14 12 16 6 25 25 2 24 15 18 25 24 17 23 17 13 28 2 15 13 13 13 28 23 24 23 28 23 4 13 15 23 14 19 14 26 2 17 14 4 14 2 15 16 19 12 26 28 23 24 16 2 15 6 4 25 6 25 15 17 19 
